GeneratedInstances/LBS18_21.param
$ LBS instance with n = 18, seed = 21
letting cards be [22,19,0,39,12,25,50,24,9,48,21,33,13,26,16,43,20,17]
